jobs  (incl. supersource/sink ):	52
RESOURCES
- renewable                 : 4 R
- nonrenewable              : 4 N
- doubly constrained        : 0 D
************************************************************************
PRECEDENCE RELATIONS:
jobnr.    #modes  #successors   successors
1	1	10		2 3 4 5 7 10 11 12 13 16 
2	6	10		41 35 29 27 26 24 23 21 17 14 
3	6	6		41 23 22 21 15 8 
4	6	4		41 21 14 6 
5	6	5		27 23 22 21 9 
6	6	10		51 35 29 28 26 25 24 23 22 17 
7	6	8		51 41 35 29 28 25 20 17 
8	6	8		51 35 28 27 26 25 24 17 
9	6	4		35 29 17 15 
10	6	8		51 29 28 26 25 24 19 18 
11	6	8		35 29 28 26 25 24 19 18 
12	6	8		51 35 28 27 26 25 19 18 
13	6	6		35 29 28 24 19 18 
14	6	10		51 50 40 39 34 32 30 28 25 22 
15	6	8		51 50 34 32 30 28 26 25 
16	6	10		51 40 39 38 35 34 32 31 30 28 
17	6	2		19 18 
18	6	10		50 40 39 38 37 34 33 32 31 30 
19	6	10		50 40 39 38 37 36 34 33 32 30 
20	6	4		49 30 26 24 
21	6	6		50 38 37 32 30 25 
22	6	6		49 48 45 38 33 31 
23	6	8		47 46 45 44 39 37 36 33 
24	6	7		48 45 44 39 37 36 33 
25	6	5		49 48 47 45 31 
26	6	6		48 47 45 43 40 38 
27	6	6		47 46 45 44 39 36 
28	6	5		47 46 37 36 33 
29	6	3		46 42 34 
30	6	4		48 47 45 44 
31	6	3		44 42 36 
32	6	3		44 43 42 
33	6	2		43 42 
34	6	2		49 45 
35	6	2		43 42 
36	6	1		43 
37	6	1		42 
38	6	1		46 
39	6	1		42 
40	6	1		44 
41	6	1		42 
42	6	1		52 
43	6	1		52 
44	6	1		52 
45	6	1		52 
46	6	1		52 
47	6	1		52 
48	6	1		52 
49	6	1		52 
50	6	1		52 
51	6	1		52 
52	1	0		
************************************************************************
REQUESTS/DURATIONS
jobnr.	mode	dur	R1	R2	R3	R4	N1	N2	N3	N4	
------------------------------------------------------------------------
1	1	0	0	0	0	0	0	0	0	0	
2	1	3	4	2	3	5	29	16	24	28	
	2	6	3	2	2	4	29	15	24	21	
	3	11	2	2	2	4	29	13	22	20	
	4	12	2	2	1	4	28	12	21	13	
	5	20	2	2	1	3	28	11	21	9	
	6	21	1	2	1	3	28	10	19	6	
3	1	3	5	5	4	4	25	10	12	28	
	2	17	4	5	4	3	21	9	12	21	
	3	18	3	5	4	3	16	9	11	18	
	4	24	3	5	4	3	14	7	9	11	
	5	26	3	5	4	3	12	7	8	8	
	6	27	2	5	4	3	6	5	6	4	
4	1	1	4	3	3	2	23	27	18	25	
	2	7	4	3	3	2	19	27	16	23	
	3	11	4	3	3	2	19	27	14	21	
	4	18	4	3	3	2	17	27	11	15	
	5	19	3	3	2	2	14	27	10	12	
	6	24	3	3	2	2	12	27	9	10	
5	1	4	3	5	3	1	15	7	10	25	
	2	25	3	5	3	1	14	6	10	23	
	3	26	3	5	3	1	14	5	9	20	
	4	28	2	5	3	1	14	5	7	16	
	5	29	2	5	3	1	14	3	7	14	
	6	30	1	5	3	1	14	3	6	11	
6	1	5	5	3	5	4	17	20	15	26	
	2	8	4	3	4	3	14	20	12	20	
	3	9	3	3	4	3	12	19	11	15	
	4	12	3	2	4	2	7	19	11	14	
	5	15	2	1	4	2	5	18	10	9	
	6	20	2	1	4	1	4	17	8	3	
7	1	7	2	5	3	3	23	17	7	18	
	2	8	1	5	2	3	22	15	7	17	
	3	18	1	5	2	3	14	15	7	12	
	4	20	1	5	2	3	14	15	7	9	
	5	22	1	5	1	3	10	14	7	8	
	6	23	1	5	1	3	5	13	7	3	
8	1	7	4	1	4	5	25	24	18	25	
	2	13	4	1	3	5	25	22	17	21	
	3	15	4	1	3	5	23	20	11	18	
	4	21	4	1	2	5	23	17	8	16	
	5	26	4	1	2	5	20	15	7	15	
	6	27	4	1	1	5	20	14	5	12	
9	1	16	2	1	4	4	20	23	29	18	
	2	19	1	1	4	4	16	20	24	15	
	3	20	1	1	3	4	13	18	21	12	
	4	21	1	1	3	4	9	16	18	11	
	5	26	1	1	2	4	9	15	15	9	
	6	28	1	1	1	4	5	13	13	5	
10	1	1	4	2	4	4	14	17	22	20	
	2	6	4	1	4	3	13	14	21	19	
	3	24	3	1	4	3	11	14	21	14	
	4	26	3	1	4	3	10	9	21	12	
	5	28	3	1	4	3	8	6	21	4	
	6	29	2	1	4	3	7	2	21	2	
11	1	1	2	5	4	2	18	11	25	7	
	2	19	1	5	4	2	17	10	24	5	
	3	25	1	5	4	2	13	10	24	4	
	4	28	1	5	4	2	12	10	24	3	
	5	29	1	5	4	1	9	10	24	3	
	6	30	1	5	4	1	8	10	24	2	
12	1	5	3	5	3	4	2	9	10	20	
	2	6	2	4	3	4	1	8	9	18	
	3	9	2	4	3	4	1	8	9	14	
	4	17	2	3	2	4	1	7	8	13	
	5	20	2	3	2	4	1	7	7	10	
	6	23	2	3	1	4	1	7	7	9	
13	1	18	5	5	4	4	24	26	14	14	
	2	19	4	5	3	3	24	24	14	12	
	3	20	4	5	3	2	22	23	12	10	
	4	21	3	5	2	2	21	21	11	7	
	5	22	3	5	2	2	20	19	9	7	
	6	28	3	5	2	1	20	18	7	5	
14	1	2	1	5	5	4	9	28	28	29	
	2	3	1	4	5	4	7	21	23	25	
	3	4	1	3	5	3	7	15	21	22	
	4	25	1	3	5	2	7	15	17	16	
	5	26	1	3	5	2	5	11	14	16	
	6	28	1	2	5	1	5	5	11	13	
15	1	3	2	5	3	4	28	8	23	19	
	2	4	2	4	3	3	27	7	20	18	
	3	7	2	3	3	3	24	6	14	18	
	4	15	2	3	3	3	23	6	12	18	
	5	22	1	2	3	1	19	4	10	17	
	6	25	1	1	3	1	17	4	2	17	
16	1	2	3	4	4	3	10	24	25	17	
	2	13	2	3	4	3	8	19	18	16	
	3	16	2	3	4	3	6	15	15	16	
	4	19	2	3	3	2	4	14	12	15	
	5	22	1	3	2	2	2	11	12	15	
	6	30	1	3	2	2	2	6	7	14	
17	1	2	1	2	1	3	21	21	25	12	
	2	6	1	2	1	2	16	17	24	11	
	3	11	1	2	1	2	14	15	22	8	
	4	18	1	2	1	1	14	14	18	7	
	5	19	1	2	1	1	10	8	16	5	
	6	25	1	2	1	1	8	7	13	3	
18	1	3	1	5	2	4	18	1	27	28	
	2	5	1	5	2	3	15	1	23	27	
	3	8	1	5	2	3	14	1	19	26	
	4	11	1	5	2	3	12	1	16	25	
	5	16	1	5	2	3	11	1	11	23	
	6	30	1	5	2	3	9	1	7	23	
19	1	2	4	3	5	4	21	30	13	14	
	2	3	4	3	4	4	20	26	13	13	
	3	5	3	3	4	4	19	22	12	13	
	4	14	2	3	4	4	18	19	12	13	
	5	22	1	3	4	4	18	14	11	13	
	6	28	1	3	4	4	17	13	11	13	
20	1	14	5	3	2	2	27	11	20	6	
	2	15	4	3	1	1	26	9	19	6	
	3	20	4	2	1	1	26	8	19	5	
	4	21	3	2	1	1	26	7	18	4	
	5	22	3	1	1	1	26	4	18	2	
	6	29	3	1	1	1	26	4	18	1	
21	1	1	4	4	5	2	27	15	26	25	
	2	11	3	4	5	2	27	13	20	21	
	3	12	3	4	5	2	27	11	20	20	
	4	17	3	4	5	2	27	8	17	19	
	5	20	3	4	5	2	26	4	13	18	
	6	25	3	4	5	2	26	3	10	16	
22	1	5	1	3	5	2	25	19	20	27	
	2	8	1	3	4	2	24	17	18	26	
	3	16	1	3	3	2	23	17	15	26	
	4	21	1	3	3	1	22	16	14	25	
	5	24	1	3	3	1	20	14	11	25	
	6	29	1	3	2	1	18	14	9	25	
23	1	12	5	4	3	4	29	26	17	26	
	2	14	5	3	3	3	26	21	16	25	
	3	19	5	2	3	3	25	19	15	21	
	4	22	5	2	2	3	23	16	15	18	
	5	27	5	1	2	3	23	10	14	17	
	6	28	5	1	2	3	21	6	14	14	
24	1	6	3	5	3	5	5	24	16	21	
	2	7	3	4	2	3	4	24	15	20	
	3	12	2	4	2	3	3	24	13	17	
	4	18	2	4	1	2	2	24	10	15	
	5	20	1	4	1	2	1	23	8	15	
	6	25	1	4	1	1	1	23	7	13	
25	1	3	5	3	3	4	15	27	19	10	
	2	16	4	2	3	3	14	23	19	8	
	3	17	4	2	3	3	12	22	19	7	
	4	18	3	2	3	3	11	20	19	6	
	5	19	2	2	3	2	10	17	19	4	
	6	21	2	2	3	1	10	16	19	4	
26	1	8	5	4	4	4	28	27	20	30	
	2	11	5	3	4	4	25	21	20	28	
	3	14	5	3	4	4	25	19	20	26	
	4	20	5	2	4	4	21	15	20	24	
	5	22	5	1	4	4	20	11	20	21	
	6	30	5	1	4	4	16	9	20	21	
27	1	6	1	4	5	4	28	18	25	25	
	2	15	1	4	4	4	27	18	23	22	
	3	20	1	4	4	4	24	18	20	17	
	4	24	1	4	3	3	21	18	18	16	
	5	27	1	4	3	3	19	18	17	12	
	6	29	1	4	2	3	18	18	15	10	
28	1	3	5	4	2	3	16	18	3	20	
	2	4	4	4	2	3	14	18	3	19	
	3	11	4	4	2	2	14	13	3	18	
	4	12	3	4	2	2	12	9	3	18	
	5	21	3	4	2	1	8	6	3	17	
	6	24	3	4	2	1	8	6	3	16	
29	1	6	5	4	2	3	29	28	22	18	
	2	12	5	4	1	3	26	24	22	17	
	3	20	5	4	1	3	23	21	17	17	
	4	26	5	4	1	3	22	19	12	15	
	5	28	5	4	1	3	19	13	10	14	
	6	30	5	4	1	3	19	12	4	14	
30	1	2	4	3	4	5	26	18	10	19	
	2	9	3	3	3	4	22	13	10	15	
	3	11	3	3	3	4	21	11	9	13	
	4	15	3	2	2	4	16	11	8	10	
	5	16	2	2	2	3	14	6	6	7	
	6	21	2	2	1	3	12	5	5	6	
31	1	10	3	3	4	5	7	20	10	20	
	2	13	3	3	4	4	6	18	10	18	
	3	14	3	3	4	3	6	17	10	16	
	4	16	3	3	4	3	3	17	9	13	
	5	20	3	2	3	2	3	16	9	12	
	6	21	3	2	3	2	2	14	8	10	
32	1	5	3	2	4	4	2	17	26	19	
	2	9	3	2	4	3	1	17	23	14	
	3	20	3	2	4	3	1	17	20	12	
	4	21	3	2	3	3	1	16	19	11	
	5	22	3	2	2	3	1	16	15	9	
	6	30	3	2	2	3	1	15	15	7	
33	1	6	2	2	4	4	21	11	16	14	
	2	15	2	1	3	4	21	9	15	13	
	3	16	2	1	3	3	20	7	15	13	
	4	19	2	1	3	3	20	5	12	12	
	5	29	2	1	3	2	19	5	11	12	
	6	30	2	1	3	2	19	2	10	12	
34	1	6	4	4	2	4	12	26	9	19	
	2	14	4	3	2	4	10	23	9	16	
	3	15	4	2	2	4	8	19	9	14	
	4	16	3	2	1	4	8	15	8	9	
	5	19	2	2	1	4	6	11	7	6	
	6	29	2	1	1	4	4	5	7	2	
35	1	2	2	4	4	4	7	11	19	16	
	2	8	2	4	3	3	6	11	19	16	
	3	12	2	4	3	3	6	9	18	12	
	4	19	2	4	2	2	5	8	17	10	
	5	22	2	4	1	2	5	7	16	4	
	6	27	2	4	1	2	4	6	16	3	
36	1	4	4	2	2	4	21	3	23	15	
	2	9	4	1	2	4	21	3	20	14	
	3	11	4	1	2	4	19	3	16	12	
	4	14	4	1	2	4	17	3	12	10	
	5	18	4	1	1	4	14	2	12	7	
	6	25	4	1	1	4	13	2	9	6	
37	1	2	4	4	2	3	18	6	21	16	
	2	4	3	3	2	3	17	6	20	14	
	3	5	3	2	2	3	13	6	19	13	
	4	12	3	2	1	3	13	6	18	12	
	5	14	3	2	1	3	9	6	17	12	
	6	19	3	1	1	3	7	6	16	10	
38	1	11	3	4	2	4	7	28	18	13	
	2	12	3	4	2	3	6	25	18	13	
	3	17	3	4	2	3	5	23	18	13	
	4	19	3	3	2	2	5	22	17	12	
	5	24	2	2	2	2	3	21	16	11	
	6	27	2	2	2	2	3	18	16	11	
39	1	9	2	3	3	4	17	10	19	21	
	2	18	1	3	2	4	16	10	17	21	
	3	22	1	3	2	3	12	9	14	20	
	4	23	1	3	2	3	7	8	13	18	
	5	25	1	2	2	2	5	6	9	15	
	6	27	1	2	2	1	4	6	5	14	
40	1	6	3	5	1	5	29	26	25	23	
	2	8	2	4	1	4	28	26	25	21	
	3	10	2	4	1	4	27	24	25	20	
	4	11	1	4	1	3	26	23	25	19	
	5	13	1	3	1	2	25	22	25	17	
	6	28	1	3	1	2	24	19	25	15	
41	1	9	2	3	4	5	17	13	17	27	
	2	11	1	3	4	5	17	13	13	24	
	3	15	1	3	3	5	16	13	11	22	
	4	18	1	3	3	5	14	12	8	19	
	5	23	1	3	2	5	13	12	4	19	
	6	26	1	3	2	5	13	12	3	16	
42	1	9	5	3	2	3	20	27	18	4	
	2	14	4	2	2	3	19	26	18	3	
	3	19	3	2	2	3	19	26	18	2	
	4	21	2	2	2	2	18	26	18	2	
	5	25	2	2	2	2	18	26	18	1	
	6	28	1	2	2	2	18	26	18	1	
43	1	3	5	5	4	1	5	14	19	27	
	2	4	3	4	3	1	5	10	17	21	
	3	9	3	3	3	1	5	9	15	21	
	4	10	2	3	2	1	5	8	12	16	
	5	13	2	2	1	1	5	5	7	15	
	6	22	1	2	1	1	5	3	6	11	
44	1	4	3	2	4	2	3	25	28	24	
	2	7	2	2	4	2	3	23	24	22	
	3	8	2	2	4	2	2	23	24	20	
	4	11	1	2	4	2	2	22	20	19	
	5	12	1	2	4	1	2	21	17	16	
	6	16	1	2	4	1	1	19	15	16	
45	1	4	3	3	4	3	27	26	10	26	
	2	11	3	3	4	3	26	22	10	22	
	3	12	2	3	4	2	19	20	10	16	
	4	28	2	3	3	2	19	15	10	10	
	5	29	1	2	3	1	11	13	10	8	
	6	30	1	2	3	1	11	7	10	2	
46	1	2	4	1	2	5	4	19	27	6	
	2	9	4	1	2	4	4	18	27	5	
	3	14	4	1	2	4	3	16	27	5	
	4	15	4	1	2	4	3	16	27	4	
	5	19	3	1	2	3	2	14	27	4	
	6	20	3	1	2	3	2	13	27	4	
47	1	7	3	4	4	3	22	22	15	25	
	2	22	3	4	3	2	19	19	15	24	
	3	24	3	4	3	2	18	19	15	24	
	4	25	2	4	3	2	15	17	15	23	
	5	28	2	4	3	2	9	16	15	22	
	6	30	2	4	3	2	7	16	15	22	
48	1	9	5	4	4	3	30	21	27	16	
	2	17	4	3	3	2	24	19	25	15	
	3	19	3	3	3	2	22	16	25	12	
	4	20	3	2	2	2	19	12	24	11	
	5	24	2	2	2	2	17	9	23	10	
	6	26	2	1	2	2	13	7	23	9	
49	1	8	3	4	2	3	22	28	10	13	
	2	10	2	3	2	3	18	27	8	11	
	3	11	2	3	2	2	14	27	8	11	
	4	24	2	2	2	2	10	27	8	10	
	5	27	2	2	2	1	7	25	7	9	
	6	30	2	2	2	1	5	25	6	9	
50	1	6	4	2	3	5	21	26	9	27	
	2	18	3	1	3	5	19	24	8	24	
	3	19	3	1	3	5	14	24	8	22	
	4	20	3	1	3	5	10	22	8	20	
	5	21	3	1	2	5	8	22	7	17	
	6	22	3	1	2	5	5	21	7	16	
51	1	1	4	5	4	4	24	10	23	24	
	2	5	3	5	3	4	23	10	17	23	
	3	6	3	5	3	4	22	10	15	19	
	4	7	3	5	2	4	20	9	10	13	
	5	11	2	5	2	4	19	9	5	12	
	6	27	2	5	1	4	18	9	4	10	
52	1	0	0	0	0	0	0	0	0	0	
************************************************************************

 RESOURCE AVAILABILITIES 
	R 1	R 2	R 3	R 4	N 1	N 2	N 3	N 4
	27	32	27	26	835	839	841	871

************************************************************************
